p tw 166 194
1 2
2 3
11 12
11 110
101 102
102 103
103 104
104 105
104 113
105 106
106 107
107 108
108 109
109 110
110 111
12 13
111 112
111 57
112 165
113 114
114 115
114 134
115 116
116 117
117 118
118 119
119 120
119 124
120 121
13 14
13 159
121 122
122 123
123 124
123 132
124 125
125 126
126 127
127 128
128 129
129 130
130 131
14 162
131 132
131 134
132 133
133 134
134 135
135 136
135 137
136 137
136 145
137 138
138 139
139 140
140 141
15 16
141 142
142 143
143 144
144 145
144 21
145 146
146 147
147 148
148 149
149 150
150 151
16 17
151 152
152 153
152 18
153 154
154 155
155 156
156 157
157 158
158 159
159 160
160 161
160 18
17 18
161 165
162 163
163 164
164 165
165 166
18 19
19 20
20 21
3 4
21 22
22 23
23 24
24 25
25 26
26 27
26 36
27 28
28 29
29 30
30 31
4 5
31 32
31 34
32 33
33 51
34 35
35 36
36 37
37 38
38 39
39 40
40 41
5 6
41 42
42 43
43 44
44 45
45 46
45 47
46 165
47 48
48 49
49 50
50 51
50 23
6 7
51 52
52 53
52 134
53 54
54 55
55 56
56 57
57 58
58 59
58 113
59 60
59 113
60 61
7 8
7 15
61 62
62 63
63 64
64 65
65 66
66 67
66 113
67 68
68 69
69 70
70 71
8 9
71 72
71 74
72 73
73 76
74 75
75 76
76 77
77 78
78 79
79 80
80 81
9 10
9 44
81 82
81 83
82 83
83 84
84 85
85 86
85 88
86 87
87 113
88 89
89 90
90 91
90 100
10 11
91 92
92 93
93 94
93 100
94 95
95 96
96 97
97 98
97 100
98 99
99 113
100 101
